
  32    4
  10   10   10   10

   0   0   0   0   0   3 2 3 4 
  10  10  10  10  10   3 31 6 5 
   2  10  10  10  10   2 31 5 
   5  10  10  10  10   3 15 7 6 
   8  10  10  10  10   4 15 13 11 7 
   8  10  10  10  10   3 13 11 8 
   5  10  10  10  10   1 8 
   2  10  10  10  10   3 18 12 9 
   1  10  10  10  10   1 10 
   6  10  10  10  10   2 28 14 
   9  10  10  10  10   2 28 14 
   2  10  10  10  10   1 14 
   8  10  10  10  10   1 14 
   6  10  10  10  10   1 16 
   8  10  10  10  10   1 16 
   1  10  10  10  10   1 17 
   3  10  10  10  10   3 23 20 19 
   1  10  10  10  10   2 23 19 
   1  10  10  10  10   2 22 21 
  10  10  10  10  10   1 21 
   4  10  10  10  10   2 27 25 
   6  10  10  10  10   2 30 24 
   9  10  10  10  10   2 30 24 
   1  10  10  10  10   1 25 
   3  10  10  10  10   1 26 
   7  10  10  10  10   1 29 
   6  10  10  10  10   1 30 
  10  10  10  10  10   1 29 
  10  10  10  10  10   1 32
   2  10  10  10  10   1 32
   7  10  10  10  10   1 32
   0   0   0   0   0   0 
